1 1 -1
2 2 -1
3 3 -1
4 4 -1
5 5 -1
6 6 -1
7 7 -1
8 8 -1
9 9 -1
10 10 -1
11 11 -1
12 12 -1
13 13 -1
14 14 -1
15 15 -1
16 16 -1
17 17 -1
18 18 -1
37 19 -1
38 20 -1
1 20 1
2 20 1
4 21 1
3 21 1
39 21 -1
5 22 1
40 22 -1
6 22 1
41 23 -1
7 23 1
8 23 1
9 24 1
42 24 -1
10 24 1
43 25 -1
11 25 1
12 25 1
14 26 1
13 26 1
44 26 -1
16 27 1
15 27 1
45 27 -1
18 28 1
17 28 1
46 28 -1
